
 102   30
  10   10   10   10   10   10   10   10   10   10   10   10   10   10   10   10   10   10   10   10   10   10   10   10   10   10   10   10   10   10

   0   0   0   0   0   0   0   0   0   0   0   0   0   0   0   0   0   0   0   0   0   0   0   0   0   0   0   0   0   0   0  24 2 3 4 5 6 7 8 9 10 11 12 13 16 17 20 21 22 24 25 26 30 33 38 39 
   6   0   0   0   1   1   0   0   0   0   0   0   0   0   2   0   1   0   0   0   3   0   0   0   0   0   0   0   0   0   0  15 71 69 62 60 58 57 55 54 52 51 43 32 31 19 15 
   5   0   0   0   0   0   4   0   0   2   0   0   3   0   0   0   0   0   0   0   0   0   0   0   0   0   0   0   0   0   2  15 77 75 69 63 62 61 58 54 52 50 46 44 42 35 18 
   7   0   0   0   0   0   0   0   2   0   0   0   0   0  10   0   0   0   0   0   0   0   0   0   0   0   0   3   0   0   0  14 76 62 61 57 51 50 48 46 45 44 42 29 28 27 
   4   0   0   0   0   0   0   0   0   0   0   0   0   0   0   0   0   0   0   0   0   0   0   0   0   0   0   0   0   0   0  13 70 63 56 54 50 48 44 41 40 37 36 31 14 
   9   0   0   0   0   0   4   0   5   0   0   0   0   0   0   0   5   0   0   0   0   0   0   0   0   0   2   0   0   2   0  15 77 75 71 69 66 62 60 54 52 51 50 46 44 42 23 
   7   0   2   0   0   0   0   0   0   0   0   0   0   0   0   0   0   0   0   0   4   0   0   0   0   0   0   0   0   0   0  12 77 76 59 58 56 54 49 48 41 37 35 19 
   7   3   8   0   0   0   7   0   0   0   1   0   0   0   0   0   0   2   0   0   0   0   0   0   0   0   0   0   0   0   0  17 98 77 76 75 74 72 71 66 65 62 55 48 47 46 45 44 43 
   2   2   0   0   0   0   0   0   0   0   0   1   0   0   5   0   0   0   1   0   0   0   1   0   0   0   0   8   0   0   4  19 101 98 97 94 76 75 72 70 69 68 66 65 60 59 55 54 51 48 46 
   5   0   0   0   0  10   0   0   0   0   0   0   0   0   0   0   0   0   0   0   0   0   0   0   0   1   0   0   0   0   0  11 100 76 75 69 68 65 52 48 46 37 34 
   2   9   0   0   0   0   0   0   0   5   0   0   0   0   0   0   0   0   0   0   0   0   0   0   0   0   0   0   0   5   0  16 101 99 98 91 76 72 70 66 64 62 60 58 55 53 45 43 
   4   0   9   2   0   0   0   0   0   0   5   0   0   0   0   0   0   0   0   0   0   0   0   0   1   0   0   7   0   0   0  13 77 75 71 70 69 67 61 60 55 51 46 43 40 
   2   0   7   0   0   0   0   1   0   0   0   3   0   0   0   0   0   0   0   0   0   0   0   0   0   0   0   0   0   0   0  10 100 99 98 73 71 65 60 50 43 31 
  10   0   0   0   0   0   0  10   0   0   0   0   0   0   2   0   0   0   6   0   0   0   0   0   0   0   3   0   0   0   0  15 98 93 92 77 76 75 74 73 69 67 65 61 60 55 42 
   8   4   0   0   4   0   0   0   0   0   0   0   0   0   0   0   0   0   0   0  10   0   7   0   0   0   0   0   0   0   0  15 101 98 97 95 94 77 76 75 74 72 70 53 48 46 45 
  10   0   0   4   8   0   0   0   0   0   0   0   0   0   0   0   0   0   0   0   0   0   0   0   0   0   0   0   0   0   0  13 96 95 72 69 68 67 62 60 55 53 51 46 44 
   8   0   0   0   0   0  10   0  10   0   5   0   2   0   0   0   0   0   0   0   0   0   0   0   3   0   0   0   0   0   0  16 99 98 94 93 90 89 77 72 70 69 68 65 59 57 53 51 
   5   0   5   0   0   0   0   0   0   0   0   0   0   0   0   2   0   0   0   0   9   0   6   0   4   0   0   0   0   0   0  14 101 99 98 76 74 72 71 70 68 66 65 64 55 43 
   9   0   0   0   0   0   5   0   0   0   0   5   0   0   0   0  10   0   0   1   0   0   2   1   0   0   0   0   1   0   0  17 100 99 98 97 95 94 93 90 75 74 73 72 70 68 67 63 53 
   3   0   0   0   0   0   7   0   0   5   5   0   0   1   8   0   0   4   9   0   0   0   6   0   0   0   6   6   0   0   0  11 100 95 77 72 70 67 57 55 50 46 44 
   4   0   7   8   0   0   0   0   0   0   0   0   0   0   0   7   0   0   0   0   0   1   7   0   0   0   0   6   0   0   0  16 99 98 97 95 94 93 90 76 73 72 68 67 66 65 63 53 
   2   0   0   0   0   0   0   0   0   0   0   6   0   0   0   5   0   0   0   0   0   0   0   0   0   0   0   7   0   0   0  16 101 99 98 95 94 93 91 88 86 77 75 72 69 65 53 48 
   9   0   0   5   0   0   0   0   0   0   0   7   0   0   0   0   0   0   0   0   0   0   0   0   0   0   0   0   0   0   0  15 100 98 97 96 95 94 93 92 76 72 70 67 61 55 45 
  10   0   0   0   0   0   0   0   0  10   0   0   0   6   0   0   0   0   6   0   0   0   0   0   0   6   0   0   0   0   0  14 101 100 99 98 93 92 91 90 77 75 73 70 67 43 
   4   6   0   0   0   7   0   0   0   0   0   0  10   0   7   0   0   8   0   0   8   0   0   0   0   0   0   0   0   0   0  14 100 99 96 95 94 91 76 72 69 67 55 54 50 45 
   8   0   4   0   0   0   0   0   0   0   2   0   0   0   0   2   8   0   0   0   6   0   0   0   0   0   0   0   0   5   0   9 98 77 75 73 67 65 56 55 42 
   8   0   0   0   0   0   0   0   0   3   0   0   0   0   0   0   0   8   0   4   0   0   0   0   0   0   0   0  10   0   0  16 101 99 98 97 95 94 93 92 91 75 74 72 68 65 60 55 
   5   0   0   0   0   0   0   0   0   0   0   0   0   0   0   0   0   0   0   0   0   0   0   0   6   4   0   0   0   0   0  11 101 100 99 98 96 93 91 69 55 53 43 
  10   0   0   0   0   0   0   0   0   0   9   0   5   0   7   0   0   0   6   0   3   0   0   6   9   0   0   0   0   0   0  11 100 98 97 91 75 73 69 67 56 55 52 
   8   0   0   6   0   4   0   0   0   0   0   0   0   7   0   0   0   6   0   0   4   0   0   0   0   0   5   6   7   0   0  16 100 99 98 97 95 94 92 88 87 83 82 78 76 67 63 55 
   3   0   0   0   0   0   0   0   0   0   0   0   0   0   0   5   0   0   0   0   0   0   0   0   0   0   0   0   0   0   5  10 93 92 90 86 80 79 77 74 67 42 
   5   6   0   0   0   9   0   0   8  10   0   0   0   0   0   0   0   0   0   0   0   0   0   0   0   0   0   0   9   7   7  13 101 96 95 94 93 92 89 86 84 83 72 61 50 
   4   0   0   0   0   0   7   0   0   5   0   0   0   0  10   0   0   0   0   0   0   0   0   0   0   0   0   0   0   0   0  11 98 97 90 89 88 82 78 76 75 57 53 
   7   0   0   0   0   0   0   0   0   0   0   0   0   0   6   0   0   9   0   0   0   0   0   0   0   0   5   0   0   0   0  13 99 98 95 93 92 91 87 83 78 77 70 67 55 
   2   0   7   0   0   0   7   0   0   0   0   0   0   0   0   0   0   0   0   0   0   0   0   8   0   0   4   0   0   0   0  11 100 97 96 93 88 80 78 74 73 67 55 
   6   0   0   0   0   0   9   0   0   9   6   0   0   0   0   0   0   0   0   0   0   0   0   0   0   0   0   8   0   0   0   8 99 93 89 87 80 74 65 51 
   3   0   0   3   0   0   0   0   0   0   0   0   0   0   0   0   0   0   0   0   0   6   0   0   0   0   0   0   0   0   0  13 101 97 95 94 90 89 87 86 83 78 73 72 66 
   2   0   0   0   0   0   0   0   0   0   7   0   0   0   0   0   9   0   0   0   0   0   0   0   0   0   0   0   4   0   0   8 99 98 97 96 87 82 75 51 
   5   0   0   0   0   0   0   0   0   0   0   0   8   0   0   0   0   0   0   0   0   0   0   0   9   0   7   6   0   0   0  12 100 98 91 88 87 86 83 81 76 75 72 69 
   8   0   0   0   0   0   0   0   0   0   0   0   0   7   0   0   0   0   0   0   0   0   0   0   0   0  10   0   9   0   0  14 100 99 98 97 96 94 89 88 86 84 81 80 79 72 
   8   0   0   0   0   0   0   0   0   0   7   0   0   0   0   0   0   0   0   0   0   0   0   0   0   0   0   2   0   0   0  11 94 91 87 86 85 84 81 78 75 73 72 
   7   0   0   0   0   0   0   0   0   0   0   0   0   0   0   0   0   7   0   0   0   0   0   0   0   0   0   0   0   0   0  10 101 97 95 94 89 87 85 83 72 68 
   4   0   0   0   0   0   0   0   0   0   0   0   0   0   0   0   0   0   0   0   0   0   6   0   0   0   0   0   0   0   0   9 97 94 89 88 87 86 84 83 59 
   2   0   8   0   0   0   0   0   0   0   0  10   0   0   0   0   5   5   0   0   0   0   0   0   0   0   5   0   0   0   0  10 101 97 94 92 90 88 83 82 80 79 
   3   0   0   0   0   0   0   0   0   0   0   7   0   0   0   0   0   0   0   0   0   0   9   0   0   9   0   0   0   0   0   7 90 89 86 85 83 73 68 
   8   0   0   0   0   0   0   0   0  10   0   0   0   0   0   0   0   0   0   0   0   0   0   9   0   0   0   0   0   0   0   9 99 93 91 87 85 84 82 79 78 
   1   0   0   0   0   0   0   0   0   0   0   7   0   0   0   0   0   0   0   0   0   0   0   0   0   0   0   0   0   0   0   7 100 93 91 89 81 79 69 
   2   0   0   7   0   0   0   0   0   0   0   0   0   0   0  10   0   0   0   0   0   0   0   0   0   0   0   0   0  10   7   6 90 85 82 81 73 67 
   3   0   0   0   0   0   0   0   0   0   6   0   6   0   0   0   0   0   7   0   0  10   0   0   0   0   0   0   0   0   0   6 93 92 85 80 78 65 
  10   0   0   0   0   0   0   0   0   0   0   3   0   0   9   0   0   0   0   0   0   7   0   0   0   0   0   0   4   0   0   8 90 88 85 82 81 80 79 78 
   4   9   0   2   0   0   0   0   0   0   8   0   0   0   5   9   0  10   0   0   0   5   6   0   0   0   0  10   0   0   0   7 100 92 91 86 84 78 73 
  10   0   0   0   0   0   0   0   0   0   0   0   0   0   6   0   0   0   0   0   6   0   0   0   0   0   0   0   0   0   0   6 95 93 87 85 78 72 
   8   0   0  10   0   0   7   0   0   0   0   0   0   0   0   0   0   0   0   0   0   0   0   0   0   0   0   5   9   0   0   6 92 87 84 83 81 80 
  10   0   0   0   0   0   4   0   8   2   0   0   0   0   0   0   0   0   0   0  10   0   0   0   0   0   0   5   6   0   0   5 93 84 81 78 74 
   9   0   0   0   0   0   0   0   0   0   0   0   9   0   0   0   0   0   0   0   0   0   0   0   6   0   0   0   0   0   0   5 90 86 85 81 79 
   9   0   0   0   0   0   0   0   0   0   0   0   0   0   6   0   0   7   0   0   5   0   0   4   0   0   0   0   0   0   0   5 92 88 84 83 80 
   8   0   0   0   0   0   0   0   0   0   0   0   0   0   0   0   0   0   0   0   0   0   0   0   0   0   0   0   0   0   0   4 96 86 79 74 
   3   0   0   0   0   8   5   0   0   0   0   0   0   7   0   0   5   0   5   0   0   0   0   0   0   0   0   0   0   0   0   4 88 84 82 74 
   3   0   0   0   0   0   0   0   0   0   0   0   4   0   0   0   0   0   0   4   0   6   0   0   0   0   0   0   0   0   0   4 95 82 80 78 
   4   0   0   7   0   0   0   0   0   0   0   0   0   0   0   0   0   0   0   0   0   0   0   0   0   0   0   0   0   0   0   4 87 84 83 82 
   2   0   0   0   0   0   0   0   0   0   0   0   0   0   0   5   5   0  10   0   0   0   6   0   0   8   0   0   0   0   0   4 91 87 81 78 
   1   0   0   0   0   0   0   0   0   5   0   0   0   0   0   0   0   7   0   5   4   0   8   0   0   0   0   0   0   0   0   4 100 94 92 82 
   9   0   5   7   0   0   0   0   0   0   6   0   0   7   0  10   0   0   0   8   0   0   0   0   0   0   0   0   0   6   0   4 101 96 91 86 
   9   0   0   0   0   0   0   4   0  10   0   0   0   0   0   0   0   0   0   0   0   0   0   0   0   0   0  10   7   0   4   4 96 93 90 80 
   5   0   6   0   0   0   0   0   0   0   0   0   0   0   0   4   0   6   0  10   5   0   8   0   0   0   0   0   0   0   0   3 96 81 79 
   8   0   0   0   0   0   0   0   0   6   0   0   0   0   0   0   0   0   0   0   0   0   0   0   5   0   0   0   0   0   0   3 85 81 80 
   4   0   0   0   0   0   0   7   0   0   0   0   0   0   0   0   3   0   0   0   0   0   0   7   0   0   0   0   0   0   0   2 89 84 
   4   0   7   0   3   0   4   0   0   0   0   0   0   0   0   0   0   0   0   0   7   0   0   0   0   0   0   0   0   0   0   2 88 78 
   6   0   2   0   0   0   0   0   0   0   0   0   0   0   0   0   0   0   0   7   0   0   0   0   0   0   0   0   0  10   0   2 85 78 
   7   0   0   0   0   0   0   0   0   0   0   0   0   3   0   0   0   0   6   0   6   0   0   0   0   0   0   0   0   0   0   2 86 85 
   7   0   0   0   0   0   0   0   6   2   0   0   5   0   0   0   0   0   0   0   0   0   0   0   0   0   0   0   0   0   0   2 94 91 
   9   0   0   0   0   0   0   0   0   0   0   0   0   0   0   0   0   0   0   0   0   0   0   0   0   0   0   0   0   0   0   1 82 
   6   7  10   0   0   0   5   0   0   0  10   0   0   0   0   9   6   0   0   0   0   7   0   0   0   0   4   0   0   0   0   1 79 
  10   0   0   5   0   0   0   0   0   2   0   8   0   0   0   0   6   0   0   0   0   0   0   0   0   0   0   6   0   0   0   1 83 
   6   0   5   0   0   5   0   0   0   0   0   0   0   0   0   2   0   0   0  10   0   0   0   0   9   0   0   0   0   0   0   1 80 
   7   0   0   0   0   0   0   0   0   0   0   0   0   0   0   0   0   0   0   0   0   0   0   0   0   0  10   0   0   5   0   1 80 
   4   0   0   0   0   3   0   0   0   0   0   0   0   0   0   0   0   4   0   0   0   0   0   0   0   0   0   0   0   0   0   1 81 
  10   0   0   0   0   0   0   0   3   0   0   6   0   0   8   0   0   0   9   0   0   0   0   0   5   0   8   0   0   0   0   1 102
   4   0   0   0   0   0   0   0   0   0   0   0   0   0   0   0   0   0   0   8   0   0   0   0   0   6   9   5   0   5   0   1 102
   4   0   0   0   8   0   0   0   5   5   0   0   0   0   0   0   0   0   0   0   5   0   0   0   0   0   0   0   3   0   0   1 102
   8   0   0   0   0   0   0   0   0   0   0   0   0   0   0   0   0   0   0   3   0   0   0   0   0   6   0   0   0   0   0   1 102
   4   0   0   0   0   0   0   0   0   0   0   0   0   0   6   0   0   4   6   0   0   0   0   0   0   5   0   3   0   0   0   1 102
   2   4   0   0   0   0   0   0   5   8   0   0   0   0   0   0   0   0   0   0   0   0   0   0   0   0   0   0   0   0   6   1 102
   4   0   0  10   0   0   0   0   0   0   0   0   0   0   0   0   0   0   0   0   0   0   0   0   6   0   0   0   0   6   6   1 102
   4   0   0   0   7   0   4   0   0   0   0   0   0   0   0   0   0   0   5   0   0   0   0   0   0   0   0   0   0   0   0   1 102
   1   0   0   0   5   0   0   0   0   0   0   0   8   0   0   0   0   0   0   0   0   0   0   0   9   0   0   0   0   0   0   1 102
   1   0   4   5   0   0   0   0   7  10   0   8   0   0   0   0   0   0   0   0   0   0   6   0   0   0   0   0   0   0   0   1 102
   3   0   7   0   0   0   0   0   6   0   8   0   0   0   0   0   0   0   5   0   0   0   0   0   0   0   0   5   0   0  10   1 102
   2   0   0   0   0   0   0   0   0   0   0   0   0   0   3   9   0   0   0   0   0   0   0   0   0   0   0   0   0   7   6   1 102
   3  10   0   0   0   0   6   0   0   0   0   0   0   0   0   0   0   0   0   0   7   0   0   0   0   9   0   0   0   0   0   1 102
  10   0   0   5   0   7   6   0   0   0   0   0   0   0   7   5   0   0   0   0   0   0   5   0   0   0   0   0   0   0   0   1 102
   6   0   0   0  10   0   0   0   0   0   0   0   0   9   0   0   0   3   0   0   0   0   0   0   0   0   0   0   0   0   0   1 102
   5   0   0   0   0   0   7   8   0   5   0   0   0   0   4   0   0   0   6   0   0   0   0   7   0   0   0   0   0   0   0   1 102
   6   0   0   0   0   0   0   0   0   0   6   0   0   0   0   0   0   0   0   0   0   0   0   0   0   0   0   0   0   0   0   1 102
   7   0   0   0   8   0   0   0   0   0   0   0   0   7   0   6   0   0   3   0   0   0   0   0   0   0   0   0   0   0   0   1 102
   8   0   0   0   0   0   0   0   0   0   5   0   0   0   0   0   0   0   0   0   0   0   7   0   0   0   0   0   0   0   0   1 102
   7   0   0   0   0   0   0   0   0   0   0   0   0   0   0   0   0   0   6   0   0   0   0   0   0   0   0   0   0   0   0   1 102
  10   0   0   0   0   0   0   0   7   0   8   0   0   0   0   0   8   0   0   0   0   0   0   0   0   0   0   0   0   4  10   1 102
   4   0   0  10   0   0   0   0   0   0   0   6   0   0   0   0   7   0   0   0   0   0   0   0   0   0   0   0   0   0   0   1 102
   3   0   5   0   0   0   0   0   0   0   4   7   0   0   3   0   0   0   0   0   0   0   0   0   0   0   0   0   0   0   0   1 102
   2   0   0   0   0   0   0   0   0   0   0   0   0   0   0   0   0   0   0   0   0   0   0   0   0   0   0   0   3   6   5   1 102
   0   0   0   0   0   0   0   0   0   0   0   0   0   0   0   0   0   0   0   0   0   0   0   0   0   0   0   0   0   0   0   0 
